c preprocessed version of BN_87, 38 vertices, 394 edges
p td 38 394
0 1
0 2
6 0
8 0
9 0
10 0
14 0
1 2
16 1
9 1
10 1
3 2
4 2
7 2
9 2
10 2
4 3
7 3
9 3
11 3
18 3
5 4
7 4
11 4
18 4
21 4
22 4
6 5
8 5
14 5
21 5
22 5
6 7
6 8
6 9
14 6
21 6
8 7
9 7
8 9
14 8
21 8
10 9
18 9
14 9
22 9
10 11
10 12
10 14
10 18
10 19
10 21
10 13
10 20
10 22
12 11
20 11
13 12
20 12
14 12
22 12
13 14
13 18
13 19
13 21
13 22
13 20
14 15
18 14
20 14
14 19
14 21
14 22
15 16
15 17
16 17
18 19
18 21
18 20
18 22
20 19
19 21
19 22
20 21
20 22
21 22
23 2
23 3
23 4
23 5
23 6
23 7
23 8
23 9
23 24
23 25
23 11
23 12
23 33
23 26
23 27
23 30
23 32
23 34
23 35
23 36
23 37
23 10
23 28
23 13
23 18
23 20
23 31
23 14
23 19
23 21
23 22
23 29
24 37
24 0
24 1
24 2
24 3
24 4
24 6
24 7
24 8
24 9
24 11
24 17
24 25
24 33
24 12
24 26
24 27
24 30
24 32
24 34
24 35
24 36
24 10
24 28
24 13
24 18
24 20
24 31
24 14
24 22
24 29
25 37
25 2
25 3
25 4
25 5
25 6
25 7
25 8
25 9
25 11
25 12
25 33
25 26
25 27
25 30
25 32
25 34
25 35
25 36
25 10
25 28
25 13
25 18
25 20
25 31
25 14
25 21
25 22
25 29
26 37
26 5
26 6
26 7
26 8
26 33
26 15
26 16
26 17
26 30
26 34
26 27
26 32
26 35
26 36
26 10
26 28
26 13
26 31
26 14
26 19
26 21
26 29
27 37
27 1
27 4
27 5
27 7
27 12
27 33
27 15
27 16
27 17
27 30
27 32
27 34
27 35
27 36
27 10
27 28
27 13
27 20
27 31
27 19
27 21
27 22
27 29
28 37
28 10
28 31
28 29
28 14
28 2
28 3
28 6
28 8
28 11
28 18
28 30
28 19
28 21
28 34
28 13
28 20
28 32
28 33
28 22
28 35
28 36
28 12
29 37
29 10
29 13
29 18
29 20
29 31
29 14
29 19
29 21
29 22
29 3
29 33
29 30
29 34
29 32
29 35
29 36
30 37
30 6
30 8
30 33
30 34
30 32
30 35
30 36
30 10
30 13
30 31
30 19
30 21
30 22
31 37
31 10
31 13
31 18
31 20
31 15
31 17
31 3
31 14
31 6
31 8
31 9
31 19
31 21
31 34
31 32
31 33
31 22
31 35
31 36
32 37
32 5
32 6
32 7
32 8
32 9
32 11
32 12
32 33
32 34
32 35
32 36
32 10
32 13
32 20
32 14
32 19
32 21
32 22
33 37
33 4
33 5
33 6
33 7
33 8
33 9
33 12
33 34
33 35
33 36
33 10
33 13
33 18
33 20
33 22
34 37
34 5
34 6
34 7
34 8
34 35
34 36
34 10
34 13
34 14
34 19
34 21
35 37
35 2
35 3
35 4
35 5
35 6
35 7
35 8
35 9
35 12
35 16
35 36
35 10
35 13
35 18
35 20
35 14
35 19
35 21
35 22
36 37
36 0
36 1
36 2
36 4
36 5
36 6
36 8
36 9
36 12
36 10
36 13
36 18
36 20
36 14
36 19
36 21
36 22
37 12
37 15
37 14
37 10
37 18
37 19
37 21
37 13
37 20
37 22
